c generated by sgen3tocnf
c nLits = 636
c actual nVars = 101
c Command: sgen3tocnf 025 0 18 24 101 4 2 0 /dev/null
p cnf 101 212
-17 -41 -45 0
-17 -41 -93 0
-17 -45 -93 0
-41 -45 -93 0
-5 -18 -21 0
-5 -18 -37 0
-5 -21 -37 0
-18 -21 -37 0
-22 -33 -49 0
-22 -33 -97 0
-22 -49 -97 0
-33 -49 -97 0
-38 -42 -61 0
-38 -42 -73 0
-38 -61 -73 0
-42 -61 -73 0
-1 -6 -53 0
-1 -6 -81 0
-1 -53 -81 0
-6 -53 -81 0
-7 -25 -43 0
-7 -25 -57 0
-7 -43 -57 0
-25 -43 -57 0
-34 -54 -58 0
-34 -54 -77 0
-34 -58 -77 0
-54 -58 -77 0
-23 -44 -69 0
-23 -44 -89 0
-23 -69 -89 0
-44 -69 -89 0
-24 -65 -74 0
-24 -65 -82 0
-24 -74 -82 0
-65 -74 -82 0
-8 -62 -70 0
-8 -62 -85 0
-8 -70 -85 0
-62 -70 -85 0
-19 -29 -55 0
-19 -29 -75 0
-19 -55 -75 0
-29 -55 -75 0
-9 -39 -46 0
-9 -39 -56 0
-9 -46 -56 0
-39 -46 -56 0
-2 -26 -86 0
-2 -26 -94 0
-2 -86 -94 0
-26 -86 -94 0
-30 -35 -87 0
-30 -35 -90 0
-30 -87 -90 0
-35 -87 -90 0
-13 -36 -47 0
-13 -36 -83 0
-13 -47 -83 0
-36 -47 -83 0
-3 -31 -48 0
-3 -31 -59 0
-3 -48 -59 0
-31 -48 -59 0
-10 -66 -88 0
-10 -66 -98 0
-10 -88 -98 0
-66 -88 -98 0
-50 -71 -84 0
-50 -71 -95 0
-50 -84 -95 0
-71 -84 -95 0
-32 -78 -96 0
-32 -78 -99 0
-32 -96 -99 0
-78 -96 -99 0
-27 -40 -67 0
-27 -40 -72 0
-27 -67 -72 0
-40 -67 -72 0
-11 -14 -76 0
-11 -14 -91 0
-11 -76 -91 0
-14 -76 -91 0
-51 -60 -63 0
-51 -60 -92 0
-51 -63 -92 0
-60 -63 -92 0
-15 -64 -68 0
-15 -64 -100 0
-15 -68 -100 0
-64 -68 -100 0
-4 -16 -20 0
-4 -16 -79 0
-4 -16 -101 0
-4 -20 -79 0
-4 -20 -101 0
-4 -79 -101 0
-16 -20 -79 0
-16 -20 -101 0
-16 -79 -101 0
-20 -79 -101 0
-12 -28 -52 0
-12 -28 -80 0
-12 -52 -80 0
-28 -52 -80 0
1 2 3 0
1 2 4 0
1 3 4 0
2 3 4 0
5 6 7 0
5 6 8 0
5 7 8 0
6 7 8 0
9 10 11 0
9 10 12 0
9 11 12 0
10 11 12 0
13 14 15 0
13 14 16 0
13 15 16 0
14 15 16 0
17 18 19 0
17 18 20 0
17 19 20 0
18 19 20 0
21 22 23 0
21 22 24 0
21 23 24 0
22 23 24 0
25 26 27 0
25 26 28 0
25 27 28 0
26 27 28 0
29 30 31 0
29 30 32 0
29 31 32 0
30 31 32 0
33 34 35 0
33 34 36 0
33 35 36 0
34 35 36 0
37 38 39 0
37 38 40 0
37 39 40 0
38 39 40 0
41 42 43 0
41 42 44 0
41 43 44 0
42 43 44 0
45 46 47 0
45 46 48 0
45 47 48 0
46 47 48 0
49 50 51 0
49 50 52 0
49 51 52 0
50 51 52 0
53 54 55 0
53 54 56 0
53 55 56 0
54 55 56 0
57 58 59 0
57 58 60 0
57 59 60 0
58 59 60 0
61 62 63 0
61 62 64 0
61 63 64 0
62 63 64 0
65 66 67 0
65 66 68 0
65 67 68 0
66 67 68 0
69 70 71 0
69 70 72 0
69 70 101 0
69 71 72 0
69 71 101 0
69 72 101 0
70 71 72 0
70 71 101 0
70 72 101 0
71 72 101 0
73 74 75 0
73 74 76 0
73 75 76 0
74 75 76 0
77 78 79 0
77 78 80 0
77 79 80 0
78 79 80 0
81 82 83 0
81 82 84 0
81 83 84 0
82 83 84 0
85 86 87 0
85 86 88 0
85 87 88 0
86 87 88 0
89 90 91 0
89 90 92 0
89 91 92 0
90 91 92 0
93 94 95 0
93 94 96 0
93 95 96 0
94 95 96 0
97 98 99 0
97 98 100 0
97 99 100 0
98 99 100 0
